Problem:    vertexcolouringproblem
Rows:       161
Columns:    110 (110 integer, 110 binary)
Non-zeros:  560
Status:     INTEGER OPTIMAL
Objective:  qtdCores = 3 (MINimum)

   No.   Row name        Activity     Lower bound   Upper bound
------ ------------    ------------- ------------- -------------
     1 qtdCores                    3                             
     2 verticeTemCor[1]
                                   1             1             = 
     3 verticeTemCor[2]
                                   1             1             = 
     4 verticeTemCor[3]
                                   1             1             = 
     5 verticeTemCor[4]
                                   1             1             = 
     6 verticeTemCor[5]
                                   1             1             = 
     7 verticeTemCor[6]
                                   1             1             = 
     8 verticeTemCor[7]
                                   1             1             = 
     9 verticeTemCor[8]
                                   1             1             = 
    10 verticeTemCor[9]
                                   1             1             = 
    11 verticeTemCor[10]
                                   1             1             = 
    12 arcoSemDoisVerticesMesmaCorQueEhUtilizada[1,2,1]
                                   0                          -0 
    13 arcoSemDoisVerticesMesmaCorQueEhUtilizada[1,2,2]
                                  -1                          -0 
    14 arcoSemDoisVerticesMesmaCorQueEhUtilizada[1,2,3]
                                   0                          -0 
    15 arcoSemDoisVerticesMesmaCorQueEhUtilizada[1,2,4]
                                   0                          -0 
    16 arcoSemDoisVerticesMesmaCorQueEhUtilizada[1,2,5]
                                   0                          -0 
    17 arcoSemDoisVerticesMesmaCorQueEhUtilizada[1,2,6]
                                   0                          -0 
    18 arcoSemDoisVerticesMesmaCorQueEhUtilizada[1,2,7]
                                   0                          -0 
    19 arcoSemDoisVerticesMesmaCorQueEhUtilizada[1,2,8]
                                   0                          -0 
    20 arcoSemDoisVerticesMesmaCorQueEhUtilizada[1,2,9]
                                   0                          -0 
    21 arcoSemDoisVerticesMesmaCorQueEhUtilizada[1,2,10]
                                   0                          -0 
    22 arcoSemDoisVerticesMesmaCorQueEhUtilizada[1,4,1]
                                   0                          -0 
    23 arcoSemDoisVerticesMesmaCorQueEhUtilizada[1,4,2]
                                   0                          -0 
    24 arcoSemDoisVerticesMesmaCorQueEhUtilizada[1,4,3]
                                   0                          -0 
    25 arcoSemDoisVerticesMesmaCorQueEhUtilizada[1,4,4]
                                   0                          -0 
    26 arcoSemDoisVerticesMesmaCorQueEhUtilizada[1,4,5]
                                   0                          -0 
    27 arcoSemDoisVerticesMesmaCorQueEhUtilizada[1,4,6]
                                   0                          -0 
    28 arcoSemDoisVerticesMesmaCorQueEhUtilizada[1,4,7]
                                   0                          -0 
    29 arcoSemDoisVerticesMesmaCorQueEhUtilizada[1,4,8]
                                   0                          -0 
    30 arcoSemDoisVerticesMesmaCorQueEhUtilizada[1,4,9]
                                   0                          -0 
    31 arcoSemDoisVerticesMesmaCorQueEhUtilizada[1,4,10]
                                  -1                          -0 
    32 arcoSemDoisVerticesMesmaCorQueEhUtilizada[1,6,1]
                                   0                          -0 
    33 arcoSemDoisVerticesMesmaCorQueEhUtilizada[1,6,2]
                                   0                          -0 
    34 arcoSemDoisVerticesMesmaCorQueEhUtilizada[1,6,3]
                                   0                          -0 
    35 arcoSemDoisVerticesMesmaCorQueEhUtilizada[1,6,4]
                                   0                          -0 
    36 arcoSemDoisVerticesMesmaCorQueEhUtilizada[1,6,5]
                                   0                          -0 
    37 arcoSemDoisVerticesMesmaCorQueEhUtilizada[1,6,6]
                                   0                          -0 
    38 arcoSemDoisVerticesMesmaCorQueEhUtilizada[1,6,7]
                                   0                          -0 
    39 arcoSemDoisVerticesMesmaCorQueEhUtilizada[1,6,8]
                                   0                          -0 
    40 arcoSemDoisVerticesMesmaCorQueEhUtilizada[1,6,9]
                                   0                          -0 
    41 arcoSemDoisVerticesMesmaCorQueEhUtilizada[1,6,10]
                                  -1                          -0 
    42 arcoSemDoisVerticesMesmaCorQueEhUtilizada[2,3,1]
                                   0                          -0 
    43 arcoSemDoisVerticesMesmaCorQueEhUtilizada[2,3,2]
                                  -1                          -0 
    44 arcoSemDoisVerticesMesmaCorQueEhUtilizada[2,3,3]
                                   0                          -0 
    45 arcoSemDoisVerticesMesmaCorQueEhUtilizada[2,3,4]
                                   0                          -0 
    46 arcoSemDoisVerticesMesmaCorQueEhUtilizada[2,3,5]
                                   0                          -0 
    47 arcoSemDoisVerticesMesmaCorQueEhUtilizada[2,3,6]
                                   0                          -0 
    48 arcoSemDoisVerticesMesmaCorQueEhUtilizada[2,3,7]
                                   0                          -0 
    49 arcoSemDoisVerticesMesmaCorQueEhUtilizada[2,3,8]
                                   0                          -0 
    50 arcoSemDoisVerticesMesmaCorQueEhUtilizada[2,3,9]
                                   0                          -0 
    51 arcoSemDoisVerticesMesmaCorQueEhUtilizada[2,3,10]
                                   0                          -0 
    52 arcoSemDoisVerticesMesmaCorQueEhUtilizada[2,9,1]
                                  -1                          -0 
    53 arcoSemDoisVerticesMesmaCorQueEhUtilizada[2,9,2]
                                   0                          -0 
    54 arcoSemDoisVerticesMesmaCorQueEhUtilizada[2,9,3]
                                   0                          -0 
    55 arcoSemDoisVerticesMesmaCorQueEhUtilizada[2,9,4]
                                   0                          -0 
    56 arcoSemDoisVerticesMesmaCorQueEhUtilizada[2,9,5]
                                   0                          -0 
    57 arcoSemDoisVerticesMesmaCorQueEhUtilizada[2,9,6]
                                   0                          -0 
    58 arcoSemDoisVerticesMesmaCorQueEhUtilizada[2,9,7]
                                   0                          -0 
    59 arcoSemDoisVerticesMesmaCorQueEhUtilizada[2,9,8]
                                   0                          -0 
    60 arcoSemDoisVerticesMesmaCorQueEhUtilizada[2,9,9]
                                   0                          -0 
    61 arcoSemDoisVerticesMesmaCorQueEhUtilizada[2,9,10]
                                   0                          -0 
    62 arcoSemDoisVerticesMesmaCorQueEhUtilizada[3,5,1]
                                   0                          -0 
    63 arcoSemDoisVerticesMesmaCorQueEhUtilizada[3,5,2]
                                  -1                          -0 
    64 arcoSemDoisVerticesMesmaCorQueEhUtilizada[3,5,3]
                                   0                          -0 
    65 arcoSemDoisVerticesMesmaCorQueEhUtilizada[3,5,4]
                                   0                          -0 
    66 arcoSemDoisVerticesMesmaCorQueEhUtilizada[3,5,5]
                                   0                          -0 
    67 arcoSemDoisVerticesMesmaCorQueEhUtilizada[3,5,6]
                                   0                          -0 
    68 arcoSemDoisVerticesMesmaCorQueEhUtilizada[3,5,7]
                                   0                          -0 
    69 arcoSemDoisVerticesMesmaCorQueEhUtilizada[3,5,8]
                                   0                          -0 
    70 arcoSemDoisVerticesMesmaCorQueEhUtilizada[3,5,9]
                                   0                          -0 
    71 arcoSemDoisVerticesMesmaCorQueEhUtilizada[3,5,10]
                                   0                          -0 
    72 arcoSemDoisVerticesMesmaCorQueEhUtilizada[3,8,1]
                                   0                          -0 
    73 arcoSemDoisVerticesMesmaCorQueEhUtilizada[3,8,2]
                                  -1                          -0 
    74 arcoSemDoisVerticesMesmaCorQueEhUtilizada[3,8,3]
                                   0                          -0 
    75 arcoSemDoisVerticesMesmaCorQueEhUtilizada[3,8,4]
                                   0                          -0 
    76 arcoSemDoisVerticesMesmaCorQueEhUtilizada[3,8,5]
                                   0                          -0 
    77 arcoSemDoisVerticesMesmaCorQueEhUtilizada[3,8,6]
                                   0                          -0 
    78 arcoSemDoisVerticesMesmaCorQueEhUtilizada[3,8,7]
                                   0                          -0 
    79 arcoSemDoisVerticesMesmaCorQueEhUtilizada[3,8,8]
                                   0                          -0 
    80 arcoSemDoisVerticesMesmaCorQueEhUtilizada[3,8,9]
                                   0                          -0 
    81 arcoSemDoisVerticesMesmaCorQueEhUtilizada[3,8,10]
                                   0                          -0 
    82 arcoSemDoisVerticesMesmaCorQueEhUtilizada[4,7,1]
                                   0                          -0 
    83 arcoSemDoisVerticesMesmaCorQueEhUtilizada[4,7,2]
                                   0                          -0 
    84 arcoSemDoisVerticesMesmaCorQueEhUtilizada[4,7,3]
                                   0                          -0 
    85 arcoSemDoisVerticesMesmaCorQueEhUtilizada[4,7,4]
                                   0                          -0 
    86 arcoSemDoisVerticesMesmaCorQueEhUtilizada[4,7,5]
                                   0                          -0 
    87 arcoSemDoisVerticesMesmaCorQueEhUtilizada[4,7,6]
                                   0                          -0 
    88 arcoSemDoisVerticesMesmaCorQueEhUtilizada[4,7,7]
                                   0                          -0 
    89 arcoSemDoisVerticesMesmaCorQueEhUtilizada[4,7,8]
                                   0                          -0 
    90 arcoSemDoisVerticesMesmaCorQueEhUtilizada[4,7,9]
                                   0                          -0 
    91 arcoSemDoisVerticesMesmaCorQueEhUtilizada[4,7,10]
                                  -1                          -0 
    92 arcoSemDoisVerticesMesmaCorQueEhUtilizada[4,8,1]
                                  -1                          -0 
    93 arcoSemDoisVerticesMesmaCorQueEhUtilizada[4,8,2]
                                   0                          -0 
    94 arcoSemDoisVerticesMesmaCorQueEhUtilizada[4,8,3]
                                   0                          -0 
    95 arcoSemDoisVerticesMesmaCorQueEhUtilizada[4,8,4]
                                   0                          -0 
    96 arcoSemDoisVerticesMesmaCorQueEhUtilizada[4,8,5]
                                   0                          -0 
    97 arcoSemDoisVerticesMesmaCorQueEhUtilizada[4,8,6]
                                   0                          -0 
    98 arcoSemDoisVerticesMesmaCorQueEhUtilizada[4,8,7]
                                   0                          -0 
    99 arcoSemDoisVerticesMesmaCorQueEhUtilizada[4,8,8]
                                   0                          -0 
   100 arcoSemDoisVerticesMesmaCorQueEhUtilizada[4,8,9]
                                   0                          -0 
   101 arcoSemDoisVerticesMesmaCorQueEhUtilizada[4,8,10]
                                   0                          -0 
   102 arcoSemDoisVerticesMesmaCorQueEhUtilizada[5,6,1]
                                  -1                          -0 
   103 arcoSemDoisVerticesMesmaCorQueEhUtilizada[5,6,2]
                                   0                          -0 
   104 arcoSemDoisVerticesMesmaCorQueEhUtilizada[5,6,3]
                                   0                          -0 
   105 arcoSemDoisVerticesMesmaCorQueEhUtilizada[5,6,4]
                                   0                          -0 
   106 arcoSemDoisVerticesMesmaCorQueEhUtilizada[5,6,5]
                                   0                          -0 
   107 arcoSemDoisVerticesMesmaCorQueEhUtilizada[5,6,6]
                                   0                          -0 
   108 arcoSemDoisVerticesMesmaCorQueEhUtilizada[5,6,7]
                                   0                          -0 
   109 arcoSemDoisVerticesMesmaCorQueEhUtilizada[5,6,8]
                                   0                          -0 
   110 arcoSemDoisVerticesMesmaCorQueEhUtilizada[5,6,9]
                                   0                          -0 
   111 arcoSemDoisVerticesMesmaCorQueEhUtilizada[5,6,10]
                                   0                          -0 
   112 arcoSemDoisVerticesMesmaCorQueEhUtilizada[5,7,1]
                                   0                          -0 
   113 arcoSemDoisVerticesMesmaCorQueEhUtilizada[5,7,2]
                                  -1                          -0 
   114 arcoSemDoisVerticesMesmaCorQueEhUtilizada[5,7,3]
                                   0                          -0 
   115 arcoSemDoisVerticesMesmaCorQueEhUtilizada[5,7,4]
                                   0                          -0 
   116 arcoSemDoisVerticesMesmaCorQueEhUtilizada[5,7,5]
                                   0                          -0 
   117 arcoSemDoisVerticesMesmaCorQueEhUtilizada[5,7,6]
                                   0                          -0 
   118 arcoSemDoisVerticesMesmaCorQueEhUtilizada[5,7,7]
                                   0                          -0 
   119 arcoSemDoisVerticesMesmaCorQueEhUtilizada[5,7,8]
                                   0                          -0 
   120 arcoSemDoisVerticesMesmaCorQueEhUtilizada[5,7,9]
                                   0                          -0 
   121 arcoSemDoisVerticesMesmaCorQueEhUtilizada[5,7,10]
                                   0                          -0 
   122 arcoSemDoisVerticesMesmaCorQueEhUtilizada[6,10,1]
                                   0                          -0 
   123 arcoSemDoisVerticesMesmaCorQueEhUtilizada[6,10,2]
                                   0                          -0 
   124 arcoSemDoisVerticesMesmaCorQueEhUtilizada[6,10,3]
                                   0                          -0 
   125 arcoSemDoisVerticesMesmaCorQueEhUtilizada[6,10,4]
                                   0                          -0 
   126 arcoSemDoisVerticesMesmaCorQueEhUtilizada[6,10,5]
                                   0                          -0 
   127 arcoSemDoisVerticesMesmaCorQueEhUtilizada[6,10,6]
                                   0                          -0 
   128 arcoSemDoisVerticesMesmaCorQueEhUtilizada[6,10,7]
                                   0                          -0 
   129 arcoSemDoisVerticesMesmaCorQueEhUtilizada[6,10,8]
                                   0                          -0 
   130 arcoSemDoisVerticesMesmaCorQueEhUtilizada[6,10,9]
                                   0                          -0 
   131 arcoSemDoisVerticesMesmaCorQueEhUtilizada[6,10,10]
                                  -1                          -0 
   132 arcoSemDoisVerticesMesmaCorQueEhUtilizada[7,9,1]
                                   0                          -0 
   133 arcoSemDoisVerticesMesmaCorQueEhUtilizada[7,9,2]
                                   0                          -0 
   134 arcoSemDoisVerticesMesmaCorQueEhUtilizada[7,9,3]
                                   0                          -0 
   135 arcoSemDoisVerticesMesmaCorQueEhUtilizada[7,9,4]
                                   0                          -0 
   136 arcoSemDoisVerticesMesmaCorQueEhUtilizada[7,9,5]
                                   0                          -0 
   137 arcoSemDoisVerticesMesmaCorQueEhUtilizada[7,9,6]
                                   0                          -0 
   138 arcoSemDoisVerticesMesmaCorQueEhUtilizada[7,9,7]
                                   0                          -0 
   139 arcoSemDoisVerticesMesmaCorQueEhUtilizada[7,9,8]
                                   0                          -0 
   140 arcoSemDoisVerticesMesmaCorQueEhUtilizada[7,9,9]
                                   0                          -0 
   141 arcoSemDoisVerticesMesmaCorQueEhUtilizada[7,9,10]
                                  -1                          -0 
   142 arcoSemDoisVerticesMesmaCorQueEhUtilizada[8,10,1]
                                   0                          -0 
   143 arcoSemDoisVerticesMesmaCorQueEhUtilizada[8,10,2]
                                  -1                          -0 
   144 arcoSemDoisVerticesMesmaCorQueEhUtilizada[8,10,3]
                                   0                          -0 
   145 arcoSemDoisVerticesMesmaCorQueEhUtilizada[8,10,4]
                                   0                          -0 
   146 arcoSemDoisVerticesMesmaCorQueEhUtilizada[8,10,5]
                                   0                          -0 
   147 arcoSemDoisVerticesMesmaCorQueEhUtilizada[8,10,6]
                                   0                          -0 
   148 arcoSemDoisVerticesMesmaCorQueEhUtilizada[8,10,7]
                                   0                          -0 
   149 arcoSemDoisVerticesMesmaCorQueEhUtilizada[8,10,8]
                                   0                          -0 
   150 arcoSemDoisVerticesMesmaCorQueEhUtilizada[8,10,9]
                                   0                          -0 
   151 arcoSemDoisVerticesMesmaCorQueEhUtilizada[8,10,10]
                                   0                          -0 
   152 arcoSemDoisVerticesMesmaCorQueEhUtilizada[9,10,1]
                                   0                          -0 
   153 arcoSemDoisVerticesMesmaCorQueEhUtilizada[9,10,2]
                                   0                          -0 
   154 arcoSemDoisVerticesMesmaCorQueEhUtilizada[9,10,3]
                                   0                          -0 
   155 arcoSemDoisVerticesMesmaCorQueEhUtilizada[9,10,4]
                                   0                          -0 
   156 arcoSemDoisVerticesMesmaCorQueEhUtilizada[9,10,5]
                                   0                          -0 
   157 arcoSemDoisVerticesMesmaCorQueEhUtilizada[9,10,6]
                                   0                          -0 
   158 arcoSemDoisVerticesMesmaCorQueEhUtilizada[9,10,7]
                                   0                          -0 
   159 arcoSemDoisVerticesMesmaCorQueEhUtilizada[9,10,8]
                                   0                          -0 
   160 arcoSemDoisVerticesMesmaCorQueEhUtilizada[9,10,9]
                                   0                          -0 
   161 arcoSemDoisVerticesMesmaCorQueEhUtilizada[9,10,10]
                                  -1                          -0 

   No. Column name       Activity     Lower bound   Upper bound
------ ------------    ------------- ------------- -------------
     1 x[1,1]       *              1             0             1 
     2 x[1,2]       *              0             0             1 
     3 x[1,3]       *              0             0             1 
     4 x[1,4]       *              0             0             1 
     5 x[1,5]       *              0             0             1 
     6 x[1,6]       *              0             0             1 
     7 x[1,7]       *              0             0             1 
     8 x[1,8]       *              0             0             1 
     9 x[1,9]       *              0             0             1 
    10 x[1,10]      *              0             0             1 
    11 x[2,1]       *              0             0             1 
    12 x[2,2]       *              0             0             1 
    13 x[2,3]       *              0             0             1 
    14 x[2,4]       *              0             0             1 
    15 x[2,5]       *              0             0             1 
    16 x[2,6]       *              0             0             1 
    17 x[2,7]       *              0             0             1 
    18 x[2,8]       *              0             0             1 
    19 x[2,9]       *              0             0             1 
    20 x[2,10]      *              1             0             1 
    21 x[3,1]       *              1             0             1 
    22 x[3,2]       *              0             0             1 
    23 x[3,3]       *              0             0             1 
    24 x[3,4]       *              0             0             1 
    25 x[3,5]       *              0             0             1 
    26 x[3,6]       *              0             0             1 
    27 x[3,7]       *              0             0             1 
    28 x[3,8]       *              0             0             1 
    29 x[3,9]       *              0             0             1 
    30 x[3,10]      *              0             0             1 
    31 x[4,1]       *              0             0             1 
    32 x[4,2]       *              1             0             1 
    33 x[4,3]       *              0             0             1 
    34 x[4,4]       *              0             0             1 
    35 x[4,5]       *              0             0             1 
    36 x[4,6]       *              0             0             1 
    37 x[4,7]       *              0             0             1 
    38 x[4,8]       *              0             0             1 
    39 x[4,9]       *              0             0             1 
    40 x[4,10]      *              0             0             1 
    41 x[5,1]       *              0             0             1 
    42 x[5,2]       *              0             0             1 
    43 x[5,3]       *              0             0             1 
    44 x[5,4]       *              0             0             1 
    45 x[5,5]       *              0             0             1 
    46 x[5,6]       *              0             0             1 
    47 x[5,7]       *              0             0             1 
    48 x[5,8]       *              0             0             1 
    49 x[5,9]       *              0             0             1 
    50 x[5,10]      *              1             0             1 
    51 x[6,1]       *              0             0             1 
    52 x[6,2]       *              1             0             1 
    53 x[6,3]       *              0             0             1 
    54 x[6,4]       *              0             0             1 
    55 x[6,5]       *              0             0             1 
    56 x[6,6]       *              0             0             1 
    57 x[6,7]       *              0             0             1 
    58 x[6,8]       *              0             0             1 
    59 x[6,9]       *              0             0             1 
    60 x[6,10]      *              0             0             1 
    61 x[7,1]       *              1             0             1 
    62 x[7,2]       *              0             0             1 
    63 x[7,3]       *              0             0             1 
    64 x[7,4]       *              0             0             1 
    65 x[7,5]       *              0             0             1 
    66 x[7,6]       *              0             0             1 
    67 x[7,7]       *              0             0             1 
    68 x[7,8]       *              0             0             1 
    69 x[7,9]       *              0             0             1 
    70 x[7,10]      *              0             0             1 
    71 x[8,1]       *              0             0             1 
    72 x[8,2]       *              0             0             1 
    73 x[8,3]       *              0             0             1 
    74 x[8,4]       *              0             0             1 
    75 x[8,5]       *              0             0             1 
    76 x[8,6]       *              0             0             1 
    77 x[8,7]       *              0             0             1 
    78 x[8,8]       *              0             0             1 
    79 x[8,9]       *              0             0             1 
    80 x[8,10]      *              1             0             1 
    81 x[9,1]       *              0             0             1 
    82 x[9,2]       *              1             0             1 
    83 x[9,3]       *              0             0             1 
    84 x[9,4]       *              0             0             1 
    85 x[9,5]       *              0             0             1 
    86 x[9,6]       *              0             0             1 
    87 x[9,7]       *              0             0             1 
    88 x[9,8]       *              0             0             1 
    89 x[9,9]       *              0             0             1 
    90 x[9,10]      *              0             0             1 
    91 x[10,1]      *              1             0             1 
    92 x[10,2]      *              0             0             1 
    93 x[10,3]      *              0             0             1 
    94 x[10,4]      *              0             0             1 
    95 x[10,5]      *              0             0             1 
    96 x[10,6]      *              0             0             1 
    97 x[10,7]      *              0             0             1 
    98 x[10,8]      *              0             0             1 
    99 x[10,9]      *              0             0             1 
   100 x[10,10]     *              0             0             1 
   101 y[1]         *              1             0             1 
   102 y[2]         *              1             0             1 
   103 y[3]         *              0             0             1 
   104 y[4]         *              0             0             1 
   105 y[5]         *              0             0             1 
   106 y[6]         *              0             0             1 
   107 y[7]         *              0             0             1 
   108 y[8]         *              0             0             1 
   109 y[9]         *              0             0             1 
   110 y[10]        *              1             0             1 

Integer feasibility conditions:

KKT.PE: max.abs.err = 0.00e+00 on row 0
        max.rel.err = 0.00e+00 on row 0
        High quality

KKT.PB: max.abs.err = 0.00e+00 on row 0
        max.rel.err = 0.00e+00 on row 0
        High quality

End of output
